(set-info :smt-lib-version 2.6)
(set-logic QF_FP)
(set-option :produce-models true)
(set-info :source |Random FP created by PyMPF|)
(set-info :license |https://www.gnu.org/licenses/gpl-3.0.html|)
(set-info :category random)
(set-info :status sat)
(declare-const x Float32)
(assert (= x (fp #b0 #b10010011 #b11010001101000001101100)))
;; x should be Float32(0x49E8D06C [Rational(3814427, 2), 1907213.500000])

(declare-const result Bool)
(assert (= result (fp.isIntegral x)))
(assert (not result))
(check-sat)
(exit)
